# Solution for model problem_
# Objective value = 1.1935835865325261e+05
x(0_0) 0
x(0_1) 0
x(0_2) 0
x(0_3) 0
x(0_4) 0
x(0_5) 0
x(0_6) 0
x(0_7) 0
x(0_8) 0
x(0_9) 0
x(0_10) 0
x(0_11) 1
x(0_12) 0
x(0_13) 0
x(0_14) 0
x(1_15) 0
x(1_16) 0
x(1_17) 1
x(1_18) 0
x(1_19) 0
x(1_20) 0
x(1_21) 0
x(1_22) 0
x(1_23) 0
x(1_24) 0
x(2_25) 0
x(2_26) 0
x(2_27) 0
x(2_28) 0
x(2_29) 0
x(2_30) 0
x(2_31) 0
x(2_32) 0
x(2_33) 0
x(2_34) 0
x(2_35) 0
x(2_36) 1
x(2_37) 0
x(2_38) 0
x(2_39) 0
x(2_40) 0
x(2_41) 0
x(2_42) 0
x(2_43) 0
x(2_44) 0
x(3_45) 0
x(3_46) 0
x(3_47) 0
x(3_48) 1
x(3_49) 0
x(3_50) 0
x(3_51) 0
x(3_52) 0
x(3_53) 0
x(3_54) 0
x(4_55) 0
x(4_56) 0
x(4_57) 0
x(4_58) 0
x(4_59) 0
x(4_60) 0
x(4_61) 0
x(4_62) 0
x(4_63) 0
x(4_64) 0
x(4_65) 0
x(4_66) 0
x(4_67) 0
x(4_68) 0
x(4_69) 0
x(4_70) 0
x(4_71) 0
x(4_72) 1
x(4_73) 0
x(4_74) 0
x(5_75) 0
x(5_76) 0
x(5_77) 0
x(5_78) 0
x(5_79) 0
x(5_80) 0
x(5_81) 1
x(5_82) 0
x(5_83) 0
x(5_84) 0
x(5_85) 0
x(5_86) 0
x(6_87) 0
x(6_88) 0
x(6_89) 0
x(6_90) 1
x(6_91) 0
x(6_92) 0
x(6_93) 0
x(6_94) 0
x(6_95) 0
x(6_96) 0
x(6_97) 0
x(6_98) 0
x(7_99) 0
x(7_100) 0
x(7_101) 0
x(7_102) 0
x(7_103) 1
x(7_104) 0
x(7_105) 0
x(7_106) 0
x(7_107) 0
x(7_108) 0
x(7_109) 0
x(7_110) 0
x(7_111) 0
x(7_112) 0
x(7_113) 0
x(7_114) 0
x(7_115) 0
x(8_116) 0
x(8_117) 0
x(8_118) 0
x(8_119) 0
x(8_120) 0
x(8_121) 0
x(8_122) 0
x(8_123) 0
x(8_124) 1
x(8_125) 0
x(8_126) 0
x(8_127) 0
x(8_128) 0
x(9_129) 0
x(9_130) 0
x(9_131) 0
x(9_132) 0
x(9_133) 0
x(9_134) 0
x(9_135) 0
x(9_136) 0
x(9_137) 1
x(9_138) 0
x(9_139) 0
x(10_140) 0
x(10_141) 0
x(10_142) 0
x(10_143) 0
x(10_144) 0
x(10_145) 0
x(10_146) 0
x(10_147) 0
x(10_148) 0
x(10_149) 0
x(10_150) 0
x(10_151) 0
x(10_152) 0
x(10_153) 0
x(10_154) 0
x(10_155) 0
x(10_156) 0
x(10_157) 1
x(10_158) 0
x(10_159) 0
x(11_160) 1
x(11_161) 0
x(11_162) 0
x(11_163) 0
x(11_164) 0
x(11_165) 0
x(11_166) 0
x(11_167) 0
x(11_168) 0
x(11_169) 0
x(11_170) 0
x(12_171) 0
x(12_172) 0
x(12_173) 0
x(12_174) 0
x(12_175) 0
x(12_176) 0
x(12_177) 1
x(12_178) 0
x(12_179) 0
x(12_180) 0
x(12_181) 0
x(12_182) 0
x(13_183) 0
x(13_184) 0
x(13_185) 0
x(13_186) 0
x(13_187) 0
x(13_188) 0
x(13_189) 0
x(13_190) 0
x(13_191) 0
x(13_192) 0
x(13_193) 0
x(13_194) 0
x(13_195) 0
x(13_196) 0
x(13_197) 0
x(13_198) 1
x(14_199) 0
x(14_200) 0
x(14_201) 0
x(14_202) 0
x(14_203) 1
x(14_204) 0
x(14_205) 0
x(14_206) 0
x(14_207) 0
x(14_208) 0
x(14_209) 0
x(14_210) 0
x(14_211) 0
x(14_212) 0
x(14_213) 0
x(15_214) 0
x(15_215) 0
x(15_216) 0
x(15_217) 0
x(15_218) 0
x(15_219) 0
x(15_220) 0
x(15_221) 0
x(15_222) 0
x(15_223) 0
x(15_224) 0
x(15_225) 0
x(15_226) 1
x(15_227) 0
x(15_228) 0
x(15_229) 0
x(16_230) 0
x(16_231) 0
x(16_232) 0
x(16_233) 0
x(16_234) 0
x(16_235) 0
x(16_236) 1
x(16_237) 0
x(16_238) 0
x(16_239) 0
x(16_240) 0
x(16_241) 0
x(16_242) 0
x(16_243) 0
x(16_244) 0
x(17_245) 0
x(17_246) 0
x(17_247) 0
x(17_248) 0
x(17_249) 0
x(17_250) 1
x(17_251) 0
x(17_252) 0
x(17_253) 0
x(17_254) 0
x(17_255) 0
x(17_256) 0
x(18_257) 0
x(18_258) 0
x(18_259) 0
x(18_260) 0
x(18_261) 0
x(18_262) 0
x(18_263) 0
x(18_264) 0
x(18_265) 0
x(18_266) 0
x(18_267) 0
x(18_268) 0
x(18_269) 0
x(18_270) 0
x(18_271) 1
x(19_272) 0
x(19_273) 0
x(19_274) 0
x(19_275) 0
x(19_276) 0
x(19_277) 0
x(19_278) 0
x(19_279) 0
x(19_280) 0
x(19_281) 0
x(19_282) 1
x(19_283) 0
x(19_284) 0
x(19_285) 0
x(19_286) 0
x(19_287) 0
x(19_288) 0
x(19_289) 0
x(20_290) 0
x(20_291) 0
x(20_292) 0
x(20_293) 0
x(20_294) 0
x(20_295) 0
x(20_296) 0
x(20_297) 0
x(20_298) 0
x(20_299) 0
x(20_300) 0
x(20_301) 0
x(20_302) 0
x(20_303) 0
x(20_304) 0
x(20_305) 0
x(20_306) 0
x(20_307) 0
x(20_308) 1
x(21_309) 0
x(21_310) 1
x(21_311) 0
x(21_312) 0
x(21_313) 0
x(21_314) 0
x(21_315) 0
x(21_316) 0
x(21_317) 0
x(21_318) 0
x(21_319) 0
x(21_320) 0
x(21_321) 0
x(21_322) 0
x(21_323) 0
x(21_324) 0
x(21_325) 0
x(21_326) 0
x(21_327) 0
x(21_328) 0
x(22_329) 0
x(22_330) 1
x(22_331) 0
x(22_332) 0
x(22_333) 0
x(22_334) 0
x(22_335) 0
x(22_336) 0
x(22_337) 0
x(22_338) 0
x(22_339) 0
x(22_340) 0
x(22_341) 0
x(22_342) 0
x(23_343) 1
x(23_344) 0
x(23_345) 0
x(23_346) 0
x(23_347) 0
x(23_348) 0
x(23_349) 0
x(23_350) 0
x(23_351) 0
x(23_352) 0
x(23_353) 0
x(23_354) 0
x(23_355) 0
x(23_356) 0
x(24_357) 0
x(24_358) 0
x(24_359) 0
x(24_360) 1
x(24_361) 0
x(24_362) 0
x(24_363) 0
x(24_364) 0
x(24_365) 0
x(24_366) 0
x(24_367) 0
x(24_368) 0
x(24_369) 0
x(24_370) 0
x(24_371) 0
x(24_372) 0
x(24_373) 0
x(25_374) 0
x(25_375) 0
x(25_376) 0
x(25_377) 0
x(25_378) 0
x(25_379) 0
x(25_380) 0
x(25_381) 0
x(25_382) 0
x(25_383) 0
x(25_384) 1
x(25_385) 0
x(25_386) 0
x(25_387) 0
x(25_388) 0
x(26_389) 0
x(26_390) 0
x(26_391) 1
x(26_392) 0
x(26_393) 0
x(26_394) 0
x(26_395) 0
x(26_396) 0
x(26_397) 0
x(26_398) 0
x(27_399) 0
x(27_400) 0
x(27_401) 0
x(27_402) 0
x(27_403) 1
x(27_404) 0
x(27_405) 0
x(27_406) 0
x(27_407) 0
x(27_408) 0
x(27_409) 0
x(27_410) 0
x(27_411) 0
x(27_412) 0
x(27_413) 0
x(27_414) 0
x(27_415) 0
x(27_416) 0
x(28_417) 0
x(28_418) 0
x(28_419) 0
x(28_420) 0
x(28_421) 0
x(28_422) 1
x(28_423) 0
x(28_424) 0
x(28_425) 0
x(28_426) 0
x(28_427) 0
x(28_428) 0
x(28_429) 0
x(28_430) 0
x(28_431) 0
x(28_432) 0
x(28_433) 0
x(28_434) 0
x(28_435) 0
x(28_436) 0
x(29_437) 0
x(29_438) 0
x(29_439) 0
x(29_440) 0
x(29_441) 0
x(29_442) 0
x(29_443) 0
x(29_444) 0
x(29_445) 0
x(29_446) 1
x(30_447) 0
x(30_448) 0
x(30_449) 0
x(30_450) 0
x(30_451) 0
x(30_452) 1
x(30_453) 0
x(30_454) 0
x(30_455) 0
x(30_456) 0
x(30_457) 0
x(30_458) 0
x(30_459) 0
x(30_460) 0
x(30_461) 0
x(30_462) 0
x(30_463) 0
x(30_464) 0
x(31_465) 0
x(31_466) 0
x(31_467) 0
x(31_468) 0
x(31_469) 0
x(31_470) 0
x(31_471) 0
x(31_472) 0
x(31_473) 0
x(31_474) 0
x(31_475) 0
x(31_476) 1
x(31_477) 0
x(32_478) 0
x(32_479) 0
x(32_480) 0
x(32_481) 0
x(32_482) 0
x(32_483) 0
x(32_484) 0
x(32_485) 0
x(32_486) 0
x(32_487) 0
x(32_488) 0
x(32_489) 1
x(32_490) 0
x(32_491) 0
x(32_492) 0
x(32_493) 0
x(32_494) 0
x(32_495) 0
x(32_496) 0
x(32_497) 0
x(33_498) 0
x(33_499) 1
x(33_500) 0
x(33_501) 0
x(33_502) 0
x(33_503) 0
x(33_504) 0
x(33_505) 0
x(33_506) 0
x(33_507) 0
x(33_508) 0
x(33_509) 0
x(33_510) 0
x(33_511) 0
x(33_512) 0
x(33_513) 0
x(33_514) 0
x(33_515) 0
x(34_516) 0
x(34_517) 0
x(34_518) 0
x(34_519) 0
x(34_520) 0
x(34_521) 1
x(34_522) 0
x(34_523) 0
x(34_524) 0
x(34_525) 0
x(35_526) 0
x(35_527) 0
x(35_528) 0
x(35_529) 0
x(35_530) 0
x(35_531) 0
x(35_532) 0
x(35_533) 1
x(35_534) 0
x(35_535) 0
x(35_536) 0
x(35_537) 0
x(36_538) 0
x(36_539) 0
x(36_540) 0
x(36_541) 0
x(36_542) 1
x(36_543) 0
x(36_544) 0
x(36_545) 0
x(36_546) 0
x(36_547) 0
x(36_548) 0
x(36_549) 0
x(36_550) 0
x(36_551) 0
x(36_552) 0
x(36_553) 0
x(36_554) 0
x(37_555) 0
x(37_556) 0
x(37_557) 1
x(37_558) 0
x(37_559) 0
x(37_560) 0
x(37_561) 0
x(37_562) 0
x(37_563) 0
x(37_564) 0
x(37_565) 0
x(37_566) 0
x(37_567) 0
x(37_568) 0
x(37_569) 0
x(37_570) 0
x(37_571) 0
x(38_572) 0
x(38_573) 0
x(38_574) 0
x(38_575) 0
x(38_576) 0
x(38_577) 0
x(38_578) 1
x(38_579) 0
x(38_580) 0
x(38_581) 0
x(38_582) 0
x(39_583) 0
x(39_584) 0
x(39_585) 0
x(39_586) 0
x(39_587) 0
x(39_588) 0
x(39_589) 0
x(39_590) 0
x(39_591) 0
x(39_592) 0
x(39_593) 0
x(39_594) 0
x(39_595) 1
x(39_596) 0
x(39_597) 0
x(39_598) 0
x(40_599) 0
x(40_600) 0
x(40_601) 0
x(40_602) 0
x(40_603) 0
x(40_604) 0
x(40_605) 0
x(40_606) 0
x(40_607) 0
x(40_608) 0
x(40_609) 0
x(40_610) 0
x(40_611) 0
x(40_612) 0
x(40_613) 0
x(40_614) 0
x(40_615) 1
x(40_616) 0
x(40_617) 0
x(41_618) 0
x(41_619) 0
x(41_620) 0
x(41_621) 0
x(41_622) 0
x(41_623) 0
x(41_624) 0
x(41_625) 0
x(41_626) 0
x(41_627) 0
x(41_628) 0
x(41_629) 1
x(42_630) 1
x(42_631) 0
x(42_632) 0
x(42_633) 0
x(42_634) 0
x(42_635) 0
x(42_636) 0
x(42_637) 0
x(42_638) 0
x(42_639) 0
x(42_640) 0
x(42_641) 0
x(42_642) 0
x(42_643) 0
x(42_644) 0
x(43_645) 0
x(43_646) 0
x(43_647) 0
x(43_648) 0
x(43_649) 1
x(43_650) 0
x(43_651) 0
x(43_652) 0
x(43_653) 0
x(43_654) 0
x(44_655) 0
x(44_656) 0
x(44_657) 0
x(44_658) 1
x(44_659) 0
x(44_660) 0
x(44_661) 0
x(44_662) 0
x(44_663) 0
x(44_664) 0
x(44_665) 0
x(44_666) 0
x(44_667) 0
x(44_668) 0
x(44_669) 0
x(44_670) 0
x(44_671) 0
x(45_672) 0
x(45_673) 0
x(45_674) 1
x(45_675) 0
x(45_676) 0
x(45_677) 0
x(45_678) 0
x(45_679) 0
x(45_680) 0
x(45_681) 0
x(45_682) 0
x(46_683) 0
x(46_684) 0
x(46_685) 0
x(46_686) 0
x(46_687) 0
x(46_688) 0
x(46_689) 0
x(46_690) 0
x(46_691) 0
x(46_692) 0
x(46_693) 0
x(46_694) 0
x(46_695) 0
x(46_696) 0
x(46_697) 0
x(46_698) 1
x(46_699) 0
x(46_700) 0
x(46_701) 0
x(47_702) 0
x(47_703) 0
x(47_704) 0
x(47_705) 0
x(47_706) 0
x(47_707) 1
x(47_708) 0
x(47_709) 0
x(47_710) 0
x(47_711) 0
x(47_712) 0
x(47_713) 0
x(47_714) 0
x(47_715) 0
x(48_716) 0
x(48_717) 0
x(48_718) 0
x(48_719) 0
x(48_720) 0
x(48_721) 0
x(48_722) 1
x(48_723) 0
x(48_724) 0
x(48_725) 0
x(48_726) 0
x(48_727) 0
x(48_728) 0
x(48_729) 0
x(48_730) 0
x(48_731) 0
x(48_732) 0
x(48_733) 0
x(48_734) 0
x(49_735) 0
x(49_736) 0
x(49_737) 0
x(49_738) 0
x(49_739) 0
x(49_740) 0
x(49_741) 0
x(49_742) 0
x(49_743) 0
x(49_744) 0
x(49_745) 0
x(49_746) 1
x(49_747) 0
x(49_748) 0
x(49_749) 0
x(49_750) 0
x(49_751) 0
x(50_752) 0
x(50_753) 1
x(50_754) 0
x(50_755) 0
x(50_756) 0
x(50_757) 0
x(50_758) 0
x(50_759) 0
x(50_760) 0
x(50_761) 0
x(50_762) 0
x(50_763) 0
x(50_764) 0
x(51_765) 1
x(51_766) 0
x(51_767) 0
x(51_768) 0
x(51_769) 0
x(51_770) 0
x(51_771) 0
x(51_772) 0
x(51_773) 0
x(51_774) 0
x(51_775) 0
x(52_776) 0
x(52_777) 0
x(52_778) 0
x(52_779) 1
x(52_780) 0
x(52_781) 0
x(52_782) 0
x(52_783) 0
x(52_784) 0
x(52_785) 0
x(52_786) 0
x(52_787) 0
x(52_788) 0
x(52_789) 0
x(53_790) 0
x(53_791) 0
x(53_792) 0
x(53_793) 0
x(53_794) 0
x(53_795) 1
x(53_796) 0
x(53_797) 0
x(53_798) 0
x(53_799) 0
x(53_800) 0
x(54_801) 0
x(54_802) 0
x(54_803) 0
x(54_804) 0
x(54_805) 0
x(54_806) 0
x(54_807) 0
x(54_808) 0
x(54_809) 0
x(54_810) 0
x(54_811) 0
x(54_812) 1
x(54_813) 0
x(54_814) 0
x(54_815) 0
x(54_816) 0
x(54_817) 0
x(54_818) 0
x(54_819) 0
x(55_820) 0
x(55_821) 0
x(55_822) 0
x(55_823) 0
x(55_824) 0
x(55_825) 0
x(55_826) 0
x(55_827) 0
x(55_828) 0
x(55_829) 0
x(55_830) 0
x(55_831) 1
x(55_832) 0
x(55_833) 0
x(55_834) 0
x(55_835) 0
x(55_836) 0
x(55_837) 0
x(55_838) 0
x(56_839) 1
x(56_840) 0
x(56_841) 0
x(56_842) 0
x(56_843) 0
x(56_844) 0
x(56_845) 0
x(56_846) 0
x(56_847) 0
x(56_848) 0
x(56_849) 0
x(57_850) 0
x(57_851) 0
x(57_852) 0
x(57_853) 0
x(57_854) 0
x(57_855) 0
x(57_856) 0
x(57_857) 0
x(57_858) 0
x(57_859) 0
x(57_860) 0
x(57_861) 0
x(57_862) 0
x(57_863) 0
x(57_864) 0
x(57_865) 1
x(57_866) 0
x(58_867) 0
x(58_868) 0
x(58_869) 0
x(58_870) 1
x(58_871) 0
x(58_872) 0
x(58_873) 0
x(58_874) 0
x(58_875) 0
x(58_876) 0
x(58_877) 0
x(58_878) 0
x(58_879) 0
x(58_880) 0
x(58_881) 0
x(58_882) 0
x(58_883) 0
x(58_884) 0
x(59_885) 0
x(59_886) 0
x(59_887) 0
x(59_888) 0
x(59_889) 0
x(59_890) 0
x(59_891) 0
x(59_892) 0
x(59_893) 0
x(59_894) 0
x(59_895) 0
x(59_896) 1
x(59_897) 0
x(59_898) 0
x(60_899) 0
x(60_900) 0
x(60_901) 0
x(60_902) 0
x(60_903) 0
x(60_904) 1
x(60_905) 0
x(60_906) 0
x(60_907) 0
x(60_908) 0
x(60_909) 0
x(60_910) 0
x(60_911) 0
x(60_912) 0
x(60_913) 0
x(60_914) 0
x(60_915) 0
x(60_916) 0
x(60_917) 0
x(60_918) 0
x(61_919) 0
x(61_920) 0
x(61_921) 0
x(61_922) 0
x(61_923) 0
x(61_924) 0
x(61_925) 0
x(61_926) 0
x(61_927) 0
x(61_928) 0
x(61_929) 0
x(61_930) 0
x(61_931) 0
x(61_932) 0
x(61_933) 1
x(61_934) 0
x(61_935) 0
x(62_936) 0
x(62_937) 0
x(62_938) 0
x(62_939) 0
x(62_940) 0
x(62_941) 0
x(62_942) 1
x(62_943) 0
x(62_944) 0
x(62_945) 0
x(62_946) 0
x(63_947) 0
x(63_948) 0
x(63_949) 0
x(63_950) 0
x(63_951) 0
x(63_952) 0
x(63_953) 0
x(63_954) 0
x(63_955) 0
x(63_956) 0
x(63_957) 0
x(63_958) 0
x(63_959) 0
x(63_960) 0
x(63_961) 0
x(63_962) 1
x(64_963) 0
x(64_964) 0
x(64_965) 0
x(64_966) 0
x(64_967) 0
x(64_968) 1
x(64_969) 0
x(64_970) 0
x(64_971) 0
x(64_972) 0
x(64_973) 0
x(64_974) 0
x(64_975) 0
x(64_976) 0
x(65_977) 1
x(65_978) 0
x(65_979) 0
x(65_980) 0
x(65_981) 0
x(65_982) 0
x(65_983) 0
x(65_984) 0
x(65_985) 0
x(65_986) 0
x(65_987) 0
x(66_988) 0
x(66_989) 0
x(66_990) 1
x(66_991) 0
x(66_992) 0
x(66_993) 0
x(66_994) 0
x(66_995) 0
x(66_996) 0
x(66_997) 0
x(66_998) 0
x(66_999) 0
x(67_1000) 0
x(67_1001) 0
x(67_1002) 0
x(67_1003) 0
x(67_1004) 0
x(67_1005) 0
x(67_1006) 0
x(67_1007) 1
x(67_1008) 0
x(67_1009) 0
x(67_1010) 0
x(67_1011) 0
x(67_1012) 0
x(68_1013) 0
x(68_1014) 0
x(68_1015) 0
x(68_1016) 0
x(68_1017) 0
x(68_1018) 0
x(68_1019) 0
x(68_1020) 0
x(68_1021) 0
x(68_1022) 0
x(68_1023) 0
x(68_1024) 0
x(68_1025) 0
x(68_1026) 0
x(68_1027) 1
x(69_1028) 0
x(69_1029) 0
x(69_1030) 1
x(69_1031) 0
x(69_1032) 0
x(69_1033) 0
x(69_1034) 0
x(69_1035) 0
x(69_1036) 0
x(69_1037) 0
x(69_1038) 0
x(69_1039) 0
x(69_1040) 0
x(69_1041) 0
x(69_1042) 0
x(69_1043) 0
x(69_1044) 0
x(69_1045) 0
x(69_1046) 0
x(70_1047) 0
x(70_1048) 0
x(70_1049) 0
x(70_1050) 0
x(70_1051) 0
x(70_1052) 0
x(70_1053) 0
x(70_1054) 0
x(70_1055) 0
x(70_1056) 0
x(70_1057) 0
x(70_1058) 1
x(70_1059) 0
x(70_1060) 0
x(71_1061) 0
x(71_1062) 0
x(71_1063) 0
x(71_1064) 0
x(71_1065) 0
x(71_1066) 0
x(71_1067) 0
x(71_1068) 0
x(71_1069) 0
x(71_1070) 0
x(71_1071) 0
x(71_1072) 0
x(71_1073) 1
x(72_1074) 0
x(72_1075) 0
x(72_1076) 0
x(72_1077) 0
x(72_1078) 0
x(72_1079) 0
x(72_1080) 0
x(72_1081) 1
x(72_1082) 0
x(72_1083) 0
x(72_1084) 0
x(72_1085) 0
x(72_1086) 0
x(72_1087) 0
x(72_1088) 0
x(73_1089) 1
x(73_1090) 0
x(73_1091) 0
x(73_1092) 0
x(73_1093) 0
x(73_1094) 0
x(73_1095) 0
x(73_1096) 0
x(73_1097) 0
x(73_1098) 0
x(74_1099) 0
x(74_1100) 0
x(74_1101) 0
x(74_1102) 0
x(74_1103) 0
x(74_1104) 0
x(74_1105) 0
x(74_1106) 0
x(74_1107) 0
x(74_1108) 0
x(74_1109) 0
x(74_1110) 0
x(74_1111) 0
x(74_1112) 0
x(74_1113) 1
x(74_1114) 0
x(74_1115) 0
x(75_1116) 0
x(75_1117) 0
x(75_1118) 0
x(75_1119) 0
x(75_1120) 1
x(75_1121) 0
x(75_1122) 0
x(75_1123) 0
x(75_1124) 0
x(75_1125) 0
x(75_1126) 0
x(76_1127) 0
x(76_1128) 0
x(76_1129) 0
x(76_1130) 0
x(76_1131) 0
x(76_1132) 1
x(76_1133) 0
x(76_1134) 0
x(76_1135) 0
x(76_1136) 0
x(76_1137) 0
x(76_1138) 0
x(76_1139) 0
x(77_1140) 0
x(77_1141) 0
x(77_1142) 0
x(77_1143) 0
x(77_1144) 0
x(77_1145) 0
x(77_1146) 0
x(77_1147) 0
x(77_1148) 0
x(77_1149) 0
x(77_1150) 1
x(77_1151) 0
x(77_1152) 0
x(77_1153) 0
x(77_1154) 0
x(77_1155) 0
x(77_1156) 0
x(77_1157) 0
x(78_1158) 0
x(78_1159) 0
x(78_1160) 0
x(78_1161) 0
x(78_1162) 0
x(78_1163) 0
x(78_1164) 0
x(78_1165) 0
x(78_1166) 0
x(78_1167) 0
x(78_1168) 0
x(78_1169) 0
x(78_1170) 1
x(78_1171) 0
x(78_1172) 0
x(78_1173) 0
x(78_1174) 0
x(78_1175) 0
x(79_1176) 0
x(79_1177) 0
x(79_1178) 0
x(79_1179) 0
x(79_1180) 0
x(79_1181) 0
x(79_1182) 0
x(79_1183) 0
x(79_1184) 1
x(79_1185) 0
x(79_1186) 0
x(79_1187) 0
x(79_1188) 0
x(80_1189) 0
x(80_1190) 0
x(80_1191) 0
x(80_1192) 0
x(80_1193) 1
x(80_1194) 0
x(80_1195) 0
x(80_1196) 0
x(80_1197) 0
x(80_1198) 0
x(81_1199) 0
x(81_1200) 1
x(81_1201) 0
x(81_1202) 0
x(81_1203) 0
x(81_1204) 0
x(81_1205) 0
x(81_1206) 0
x(81_1207) 0
x(81_1208) 0
x(81_1209) 0
x(81_1210) 0
x(81_1211) 0
x(81_1212) 0
x(81_1213) 0
x(81_1214) 0
x(81_1215) 0
x(81_1216) 0
x(82_1217) 1
x(82_1218) 0
x(82_1219) 0
x(82_1220) 0
x(82_1221) 0
x(82_1222) 0
x(82_1223) 0
x(82_1224) 0
x(82_1225) 0
x(82_1226) 0
x(83_1227) 0
x(83_1228) 1
x(83_1229) 0
x(83_1230) 0
x(83_1231) 0
x(83_1232) 0
x(83_1233) 0
x(83_1234) 0
x(83_1235) 0
x(83_1236) 0
x(83_1237) 0
x(83_1238) 0
x(83_1239) 0
x(83_1240) 0
x(83_1241) 0
x(83_1242) 0
x(83_1243) 0
x(83_1244) 0
x(84_1245) 0
x(84_1246) 0
x(84_1247) 0
x(84_1248) 1
x(84_1249) 0
x(84_1250) 0
x(84_1251) 0
x(84_1252) 0
x(84_1253) 0
x(84_1254) 0
x(84_1255) 0
x(84_1256) 0
x(84_1257) 0
x(84_1258) 0
x(84_1259) 0
x(84_1260) 0
x(84_1261) 0
x(84_1262) 0
x(85_1263) 0
x(85_1264) 0
x(85_1265) 0
x(85_1266) 0
x(85_1267) 0
x(85_1268) 0
x(85_1269) 0
x(85_1270) 0
x(85_1271) 0
x(85_1272) 0
x(85_1273) 0
x(85_1274) 0
x(85_1275) 0
x(85_1276) 0
x(85_1277) 0
x(85_1278) 0
x(85_1279) 0
x(85_1280) 0
x(85_1281) 1
x(86_1282) 0
x(86_1283) 0
x(86_1284) 0
x(86_1285) 0
x(86_1286) 0
x(86_1287) 0
x(86_1288) 0
x(86_1289) 0
x(86_1290) 0
x(86_1291) 0
x(86_1292) 0
x(86_1293) 0
x(86_1294) 1
x(86_1295) 0
x(86_1296) 0
x(86_1297) 0
x(86_1298) 0
x(86_1299) 0
x(87_1300) 0
x(87_1301) 0
x(87_1302) 0
x(87_1303) 0
x(87_1304) 0
x(87_1305) 0
x(87_1306) 0
x(87_1307) 0
x(87_1308) 0
x(87_1309) 0
x(87_1310) 1
x(87_1311) 0
x(87_1312) 0
x(87_1313) 0
x(87_1314) 0
x(87_1315) 0
x(87_1316) 0
x(87_1317) 0
x(88_1318) 0
x(88_1319) 0
x(88_1320) 0
x(88_1321) 0
x(88_1322) 0
x(88_1323) 0
x(88_1324) 0
x(88_1325) 0
x(88_1326) 0
x(88_1327) 1
x(88_1328) 0
x(88_1329) 0
x(88_1330) 0
x(88_1331) 0
x(88_1332) 0
x(88_1333) 0
x(88_1334) 0
x(88_1335) 0
x(88_1336) 0
x(89_1337) 0
x(89_1338) 0
x(89_1339) 0
x(89_1340) 0
x(89_1341) 0
x(89_1342) 0
x(89_1343) 0
x(89_1344) 0
x(89_1345) 0
x(89_1346) 0
x(89_1347) 1
x(89_1348) 0
x(89_1349) 0
x(90_1350) 1
x(90_1351) 0
x(90_1352) 0
x(90_1353) 0
x(90_1354) 0
x(90_1355) 0
x(90_1356) 0
x(90_1357) 0
x(90_1358) 0
x(90_1359) 0
x(90_1360) 0
x(90_1361) 0
x(90_1362) 0
x(91_1363) 1
x(91_1364) 0
x(91_1365) 0
x(91_1366) 0
x(91_1367) 0
x(91_1368) 0
x(91_1369) 0
x(91_1370) 0
x(91_1371) 0
x(91_1372) 0
x(91_1373) 0
x(91_1374) 0
x(91_1375) 0
x(91_1376) 0
x(91_1377) 0
x(91_1378) 0
x(91_1379) 0
x(91_1380) 0
x(91_1381) 0
x(92_1382) 0
x(92_1383) 0
x(92_1384) 0
x(92_1385) 0
x(92_1386) 0
x(92_1387) 0
x(92_1388) 0
x(92_1389) 0
x(92_1390) 1
x(92_1391) 0
x(92_1392) 0
x(92_1393) 0
x(92_1394) 0
x(92_1395) 0
x(92_1396) 0
x(92_1397) 0
x(92_1398) 0
x_1_0 4.9999434401406295e+04
s_1_0 5.0000565598593705e+04
z_1_0 0.500005655985937
x_1_1 3.2644854516326450e+02
s_1_1 0
z_1_1 9.9673551454836729e-01
x_1_2 3.2708119870534574e+02
s_1_2 0
z_1_2 9.9672918801294652e-01
x_1_3 3.2632685504946858e+02
s_1_3 0
z_1_3 9.9673673144950525e-01
x_1_4 0
s_1_4 1.1302104368223809e+00
z_1_4 1
x_1_5 0
s_1_5 1.3417955923359841e+00
z_1_5 1
x_1_6 4.9999856197390611e+04
s_1_6 5.0000143802609382e+04
z_1_6 5.0000143802609387e-01
x_1_7 3.3023413534600695e+02
s_1_7 0
z_1_7 9.9669765864653992e-01
x_1_8 0
s_1_8 7.4492083936274867e-01
z_1_8 1
x_1_9 4.9999704545166525e+04
s_1_9 5.0000295454833482e+04
z_1_9 5.0000295454833477e-01
x_1_10 3.3083341129195469e+02
s_1_10 0
z_1_10 9.9669166588708047e-01
x_1_11 3.3100566555561090e+02
s_1_11 0
z_1_11 9.9668994334444394e-01
x_1_12 0
s_1_12 8.9339185504650231e-01
z_1_12 1
x_1_13 3.3065477430261672e+02
s_1_13 0
z_1_13 9.9669345225697381e-01
x_1_14 0
s_1_14 4.7271433731657453e-01
z_1_14 1
x_1_15 0
s_1_15 1.1015516499173827e+00
z_1_15 1
x_1_16 3.2863149833631178e+02
s_1_16 0
z_1_16 9.9671368501663682e-01
x_1_17 3.3011675573697721e+02
s_1_17 0
z_1_17 9.9669883244263024e-01
x_1_18 4.9999459827089551e+04
s_1_18 5.0000540172910449e+04
z_1_18 5.0000540172910446e-01
x_1_19 0
s_1_19 8.2111504509521183e-01
z_1_19 1
x_1_20 0
s_1_20 1.2933681304239144e+00
z_1_20 1
x_1_21 3.3029179627263511e+02
s_1_21 0
z_1_21 9.9669708203727370e-01
x_1_22 4.9999465180123028e+04
s_1_22 5.0000534819876979e+04
z_1_22 5.0000534819876974e-01
x_1_23 0
s_1_23 8.3823061577277258e-01
z_1_23 1
x_1_24 3.2713108953156916e+02
s_1_24 0
z_1_24 9.9672868910468426e-01
x_1_25 0
s_1_25 7.5312663292243087e-01
z_1_25 1
x_1_26 0
s_1_26 1.2301856777048670e+00
z_1_26 1
x_1_27 3.2928104671930487e+02
s_1_27 0
z_1_27 0.996707189532807
x_1_28 3.3024672541348264e+02
s_1_28 0
z_1_28 9.9669753274586514e-01
x_1_29 3.3114886532817036e+02
s_1_29 0
z_1_29 9.9668851134671832e-01
x_1_30 0
s_1_30 1.0394316010060720e+00
z_1_30 1
x_1_31 3.2403477837097307e+02
s_1_31 0
z_1_31 9.9675965221629026e-01
x_1_32 4.9999627204389428e+04
s_1_32 5.0000372795610572e+04
z_1_32 5.0000372795610570e-01
x_1_33 0
s_1_33 9.1762517936149379e-01
z_1_33 1
x_1_34 331.322030717507
s_1_34 0
z_1_34 9.9668677969282493e-01
x_1_35 3.2888481654692441e+02
s_1_35 0
z_1_35 9.9671115183453074e-01
x_1_36 4.9999224166017251e+04
s_1_36 5.0000775833982741e+04
z_1_36 5.0000775833982747e-01
x_1_37 0
s_1_37 9.0593833557068137e-01
z_1_37 1
x_1_38 3.2619710131362081e+02
s_1_38 0
z_1_38 9.9673802898686381e-01
x_1_39 0
s_1_39 1.3610956808552146e+00
z_1_39 1
x_1_40 0
s_1_40 8.7790237312583486e-01
z_1_40 1
x_1_41 3.3120664249687979e+02
s_1_41 0
z_1_41 9.9668793357503127e-01
x_1_42 3.2824590973695740e+02
s_1_42 0
z_1_42 9.9671754090263043e-01
x_1_43 0
s_1_43 1.0865695088868961e+00
z_1_43 1
x_1_44 3.2630339855795319e+02
s_1_44 0
z_1_44 9.9673696601442052e-01
x_1_45 0
s_1_45 8.0479251575161470e-01
z_1_45 1
x_1_46 0
s_1_46 1.7393121338536730e+00
z_1_46 1
x_1_47 0
s_1_47 9.0606754562395508e-01
z_1_47 1
x_1_48 4.9999697577752966e+04
s_1_48 5.0000302422247034e+04
z_1_48 5.0000302422247034e-01
x_1_49 3.2959942145645618e+02
s_1_49 0
z_1_49 9.9670400578543539e-01
x_1_50 3.2619036804467032e+02
s_1_50 0
z_1_50 9.9673809631955335e-01
x_1_51 0
s_1_51 1.4075733088830020e+00
z_1_51 1
x_1_52 4.9999309250682767e+04
s_1_52 5.0000690749317233e+04
z_1_52 5.0000690749317234e-01
x_1_53 3.3132378730527125e+02
s_1_53 0
z_1_53 9.9668676212694729e-01
x_1_54 3.2756824388913810e+02
s_1_54 0
z_1_54 9.9672431756110857e-01
x_1_55 3.2943123399675824e+02
s_1_55 0
z_1_55 9.9670568766003242e-01
x_1_56 0
s_1_56 1.4593930527917109e+00
z_1_56 1
x_1_57 0
s_1_57 1.1697799298563041e+00
z_1_57 1
x_1_58 3.2654584934374725e+02
s_1_58 0
z_1_58 9.9673454150656249e-01
x_1_59 3.3063495997038262e+02
s_1_59 0
z_1_59 9.9669365040029623e-01
x_1_60 3.2955289749847725e+02
s_1_60 0
z_1_60 9.9670447102501525e-01
x_1_61 3.2767514661233872e+02
s_1_61 0
z_1_61 9.9672324853387662e-01
x_1_62 0
s_1_62 1.0661998596333433e+00
z_1_62 1
x_1_63 0
s_1_63 6.3883219088893384e-01
z_1_63 1
x_1_64 0
s_1_64 1.0331381581490859e+00
z_1_64 1
x_1_65 0
s_1_65 1.0486016939030378e+00
z_1_65 1
x_1_66 3.2605461058858782e+02
s_1_66 0
z_1_66 9.9673945389411411e-01
x_1_67 3.2704975442937575e+02
s_1_67 0
z_1_67 9.9672950245570624e-01
x_1_68 0
s_1_68 0.837142342585139
z_1_68 1
x_1_69 3.2951558037847281e+02
s_1_69 0
z_1_69 9.9670484419621530e-01
x_1_70 3.2980640065019543e+02
s_1_70 0
z_1_70 9.9670193599349810e-01
x_1_71 3.2595124345760269e+02
s_1_71 0
z_1_71 0.996740487565424
x_1_72 0
s_1_72 1.1737352174241096e+00
z_1_72 1
x_1_73 0
s_1_73 7.9035840462893248e-01
z_1_73 1
x_1_74 3.2897431078180671e+02
s_1_74 0
z_1_74 0.996710256892182
x_1_75 3.2782167914632009e+02
s_1_75 0
z_1_75 9.9672178320853677e-01
x_1_76 4.9999314027185341e+04
s_1_76 5.0000685972814666e+04
z_1_76 5.0000685972814662e-01
x_1_77 0
s_1_77 5.5990753130754456e-01
z_1_77 1
x_1_78 3.3123303692706395e+02
s_1_78 0
z_1_78 9.9668766963072941e-01
x_1_79 3.2925263775000349e+02
s_1_79 0
z_1_79 0.9967074736225
x_1_80 3.2758423498226330e+02
s_1_80 0
z_1_80 9.9672415765017741e-01
x_1_81 0
s_1_81 1.3194434705073945e+00
z_1_81 1
x_1_82 0
s_1_82 1.2405600065249018e+00
z_1_82 1
x_1_83 0
s_1_83 9.6906985045279725e-01
z_1_83 1
x_1_84 0
s_1_84 1.2589834808677551e+00
z_1_84 1
x_1_85 3.3185537918050250e+02
s_1_85 0
z_1_85 0.996681446208195
x_1_86 0
s_1_86 1.4753254901006585e+00
z_1_86 1
x_1_87 0
s_1_87 1.4136520477186423e+00
z_1_87 1
x_1_88 3.2805202203558292e+02
s_1_88 0
z_1_88 9.9671947977964415e-01
x_1_89 0
s_1_89 6.8509702164737973e-01
z_1_89 1
x_1_90 0
s_1_90 1.6166247947912780e+00
z_1_90 1
x_1_91 0
s_1_91 1.3221459299966227e+00
z_1_91 1
x_1_92 4.9999437074723566e+04
s_1_92 5.0000562925276434e+04
z_1_92 5.0000562925276437e-01
x_1_93 0
s_1_93 9.1145275798771763e-01
z_1_93 1
x_1_94 0
s_1_94 2.2567687195260078e-01
z_1_94 1
x_1_95 3.2782914715398510e+02
s_1_95 0
z_1_95 9.9672170852846020e-01
x_1_96 3.3168822195380926e+02
s_1_96 0
z_1_96 9.9668311778046192e-01
x_1_97 3.3042500290629687e+02
s_1_97 0
z_1_97 0.996695749970937
x_1_98 0
s_1_98 1.0060901702963747e+00
z_1_98 1
x_1_99 3.2894759101513773e+02
s_1_99 0
z_1_99 9.9671052408984862e-01
x_1_100 0
s_1_100 8.0470939244696638e-01
z_1_100 1
x_1_101 0
s_1_101 1.2142595738550881e+00
z_1_101 1
x_1_102 0
s_1_102 1.6094036612485070e+00
z_1_102 1
x_1_103 0
s_1_103 6.6131225077333511e-01
z_1_103 1
x_1_104 3.2913941572234035e+02
s_1_104 0
z_1_104 9.9670860584277665e-01
x_1_105 3.2971777947619557e+02
s_1_105 0
z_1_105 9.9670282220523809e-01
x_1_106 3.2913854275550693e+02
s_1_106 0
z_1_106 9.9670861457244486e-01
x_1_107 3.2764550268044695e+02
s_1_107 0
z_1_107 9.9672354497319549e-01
x_1_108 49999.4589430677
s_1_108 50000.5410569323
z_1_108 0.500005410569323
x_1_109 4.9999079235556244e+04
s_1_109 5.0000920764443756e+04
z_1_109 5.0000920764443757e-01
x_1_110 4.9999255314511778e+04
s_1_110 5.0000744685488222e+04
z_1_110 5.0000744685488219e-01
x_1_111 4.9999324573258287e+04
s_1_111 5.0000675426741713e+04
z_1_111 5.0000675426741714e-01
x_1_112 3.2760294410772622e+02
s_1_112 0
z_1_112 9.9672397055892270e-01
x_1_113 0
s_1_113 1.0684249654295854e+00
z_1_113 1
x_1_114 0
s_1_114 1.0011929633619729e+00
z_1_114 1
x_1_115 3.2794258799485397e+02
s_1_115 0
z_1_115 9.9672057412005144e-01
x_1_116 4.9999669514794245e+04
s_1_116 5.0000330485205755e+04
z_1_116 5.0000330485205757e-01
x_1_117 3.2962024717219174e+02
s_1_117 0
z_1_117 9.9670379752827809e-01
x_1_118 0
s_1_118 1.1768578053190595e+00
z_1_118 1
x_1_119 3.3051129977218807e+02
s_1_119 0
z_1_119 9.9669488700227815e-01
x_1_120 4.9999666881095764e+04
s_1_120 5.0000333118904244e+04
z_1_120 5.0000333118904239e-01
x_1_121 0
s_1_121 1.24021193763474
z_1_121 1
x_1_122 4.9999549326552195e+04
s_1_122 5.0000450673447805e+04
z_1_122 0.500004506734478
x_1_123 3.3091729425451194e+02
s_1_123 0
z_1_123 9.9669082705745482e-01
x_1_124 3.2844997843075544e+02
s_1_124 0
z_1_124 9.9671550021569244e-01
x_1_125 3.3065788179880474e+02
s_1_125 0
z_1_125 0.996693421182012
x_1_126 4.9999550969534088e+04
s_1_126 5.0000449030465912e+04
z_1_126 5.0000449030465910e-01
x_1_127 3.2696974614355713e+02
s_1_127 0
z_1_127 9.9673030253856443e-01
x_1_128 0
s_1_128 1.1480622500239406e+00
z_1_128 1
x_1_129 3.3170664369313454e+02
s_1_129 0
z_1_129 9.9668293356306858e-01
x_1_130 3.2868304109339078e+02
s_1_130 0
z_1_130 9.9671316958906608e-01
x_1_131 0
s_1_131 1.1138024957763264e+00
z_1_131 1
x_1_132 0
s_1_132 7.7715530525892973e-01
z_1_132 1
x_1_133 3.2761650132086652e+02
s_1_133 0
z_1_133 9.9672383498679140e-01
x_1_134 3.3063997845369158e+02
s_1_134 0
z_1_134 0.996693600215463
x_1_135 3.2701485135906842e+02
s_1_135 0
z_1_135 9.9672985148640925e-01
x_1_136 0
s_1_136 1.0938318270809759e+00
z_1_136 1
x_1_137 0
s_1_137 1.1312217210652307e+00
z_1_137 1
x_1_138 4.9999245411503478e+04
s_1_138 5.0000754588496522e+04
z_1_138 5.0000754588496521e-01
x_1_139 0
s_1_139 1.0702522516075987e+00
z_1_139 1
x_1_140 0
s_1_140 8.0811144792096457e-01
z_1_140 1
x_1_141 3.2900908570735191e+02
s_1_141 0
z_1_141 9.9670990914292645e-01
x_1_142 0
s_1_142 1.3264272283122409e+00
z_1_142 1
x_1_143 0
s_1_143 1.4235125174600398e+00
z_1_143 1
x_1_144 3.2905539798714744e+02
s_1_144 0
z_1_144 9.9670944602012856e-01
x_1_145 0
s_1_145 7.4069663362752181e-01
z_1_145 1
x_1_146 0
s_1_146 1.0128731607692316e+00
z_1_146 1
x_1_147 0
s_1_147 0.968015766935423
z_1_147 1
x_1_148 3.2737216628668830e+02
s_1_148 0
z_1_148 9.9672627833713312e-01
x_1_149 3.3036664558714256e+02
s_1_149 0
z_1_149 9.9669633354412857e-01
x_1_150 0
s_1_150 1.0135271786130033e+00
z_1_150 1
x_1_151 3.2742039832100272e+02
s_1_151 0
z_1_151 9.9672579601678990e-01
x_1_152 3.2931214535048639e+02
s_1_152 0
z_1_152 9.9670687854649509e-01
x_1_153 3.2618295349179243e+02
s_1_153 0
z_1_153 9.9673817046508206e-01
x_1_154 0
s_1_154 1.1233797212480567e+00
z_1_154 1
x_1_155 0
s_1_155 8.0842689127894118e-01
z_1_155 1
x_1_156 3.3123172328760847e+02
s_1_156 0
z_1_156 9.9668768276712394e-01
x_1_157 0
s_1_157 8.6641105939634144e-01
z_1_157 1
x_1_158 328.400985294953
s_1_158 0
z_1_158 9.9671599014705048e-01
x_1_159 3.3018027090001851e+02
s_1_159 0
z_1_159 9.9669819729099984e-01
x_2_0 1.1719484865325261e+05
